c File: flat50_3_0.col
c
c SOURCE: Joseph Culberson (joe@cs.ualberta.ca)
c DESCRIPTION: Quasi-random coloring problem
c              generated with flatness = 0
c                             probability = 0.139
c                             known coloring = 3
c                             random seed = 1372
c              Creation Date:  Tue Jun  9 12:07:44 1998
c Maximum degree = 8 Minimum degree = 1
c p edge 50 115
c cnf created by edge2cnf
p cnf 150 545
-1 -2 0
-1 -3 0
-2 -3 0
1 2 3 0
-4 -5 0
-4 -6 0
-5 -6 0
4 5 6 0
-7 -8 0
-7 -9 0
-8 -9 0
7 8 9 0
-10 -11 0
-10 -12 0
-11 -12 0
10 11 12 0
-13 -14 0
-13 -15 0
-14 -15 0
13 14 15 0
-16 -17 0
-16 -18 0
-17 -18 0
16 17 18 0
-19 -20 0
-19 -21 0
-20 -21 0
19 20 21 0
-22 -23 0
-22 -24 0
-23 -24 0
22 23 24 0
-25 -26 0
-25 -27 0
-26 -27 0
25 26 27 0
-28 -29 0
-28 -30 0
-29 -30 0
28 29 30 0
-31 -32 0
-31 -33 0
-32 -33 0
31 32 33 0
-34 -35 0
-34 -36 0
-35 -36 0
34 35 36 0
-37 -38 0
-37 -39 0
-38 -39 0
37 38 39 0
-40 -41 0
-40 -42 0
-41 -42 0
40 41 42 0
-43 -44 0
-43 -45 0
-44 -45 0
43 44 45 0
-46 -47 0
-46 -48 0
-47 -48 0
46 47 48 0
-49 -50 0
-49 -51 0
-50 -51 0
49 50 51 0
-52 -53 0
-52 -54 0
-53 -54 0
52 53 54 0
-55 -56 0
-55 -57 0
-56 -57 0
55 56 57 0
-58 -59 0
-58 -60 0
-59 -60 0
58 59 60 0
-61 -62 0
-61 -63 0
-62 -63 0
61 62 63 0
-64 -65 0
-64 -66 0
-65 -66 0
64 65 66 0
-67 -68 0
-67 -69 0
-68 -69 0
67 68 69 0
-70 -71 0
-70 -72 0
-71 -72 0
70 71 72 0
-73 -74 0
-73 -75 0
-74 -75 0
73 74 75 0
-76 -77 0
-76 -78 0
-77 -78 0
76 77 78 0
-79 -80 0
-79 -81 0
-80 -81 0
79 80 81 0
-82 -83 0
-82 -84 0
-83 -84 0
82 83 84 0
-85 -86 0
-85 -87 0
-86 -87 0
85 86 87 0
-88 -89 0
-88 -90 0
-89 -90 0
88 89 90 0
-91 -92 0
-91 -93 0
-92 -93 0
91 92 93 0
-94 -95 0
-94 -96 0
-95 -96 0
94 95 96 0
-97 -98 0
-97 -99 0
-98 -99 0
97 98 99 0
-100 -101 0
-100 -102 0
-101 -102 0
100 101 102 0
-103 -104 0
-103 -105 0
-104 -105 0
103 104 105 0
-106 -107 0
-106 -108 0
-107 -108 0
106 107 108 0
-109 -110 0
-109 -111 0
-110 -111 0
109 110 111 0
-112 -113 0
-112 -114 0
-113 -114 0
112 113 114 0
-115 -116 0
-115 -117 0
-116 -117 0
115 116 117 0
-118 -119 0
-118 -120 0
-119 -120 0
118 119 120 0
-121 -122 0
-121 -123 0
-122 -123 0
121 122 123 0
-124 -125 0
-124 -126 0
-125 -126 0
124 125 126 0
-127 -128 0
-127 -129 0
-128 -129 0
127 128 129 0
-130 -131 0
-130 -132 0
-131 -132 0
130 131 132 0
-133 -134 0
-133 -135 0
-134 -135 0
133 134 135 0
-136 -137 0
-136 -138 0
-137 -138 0
136 137 138 0
-139 -140 0
-139 -141 0
-140 -141 0
139 140 141 0
-142 -143 0
-142 -144 0
-143 -144 0
142 143 144 0
-145 -146 0
-145 -147 0
-146 -147 0
145 146 147 0
-148 -149 0
-148 -150 0
-149 -150 0
148 149 150 0
-55 -1 0
-56 -2 0
-57 -3 0
-76 -1 0
-77 -2 0
-78 -3 0
-97 -1 0
-98 -2 0
-99 -3 0
-103 -1 0
-104 -2 0
-105 -3 0
-133 -1 0
-134 -2 0
-135 -3 0
-142 -1 0
-143 -2 0
-144 -3 0
-79 -4 0
-80 -5 0
-81 -6 0
-94 -4 0
-95 -5 0
-96 -6 0
-67 -7 0
-68 -8 0
-69 -9 0
-97 -7 0
-98 -8 0
-99 -9 0
-130 -7 0
-131 -8 0
-132 -9 0
-130 -10 0
-131 -11 0
-132 -12 0
-136 -10 0
-137 -11 0
-138 -12 0
-61 -13 0
-62 -14 0
-63 -15 0
-64 -13 0
-65 -14 0
-66 -15 0
-73 -13 0
-74 -14 0
-75 -15 0
-88 -13 0
-89 -14 0
-90 -15 0
-103 -13 0
-104 -14 0
-105 -15 0
-112 -13 0
-113 -14 0
-114 -15 0
-118 -13 0
-119 -14 0
-120 -15 0
-52 -16 0
-53 -17 0
-54 -18 0
-94 -16 0
-95 -17 0
-96 -18 0
-118 -16 0
-119 -17 0
-120 -18 0
-124 -16 0
-125 -17 0
-126 -18 0
-127 -16 0
-128 -17 0
-129 -18 0
-130 -16 0
-131 -17 0
-132 -18 0
-73 -19 0
-74 -20 0
-75 -21 0
-88 -19 0
-89 -20 0
-90 -21 0
-97 -19 0
-98 -20 0
-99 -21 0
-118 -19 0
-119 -20 0
-120 -21 0
-148 -19 0
-149 -20 0
-150 -21 0
-55 -22 0
-56 -23 0
-57 -24 0
-70 -22 0
-71 -23 0
-72 -24 0
-85 -22 0
-86 -23 0
-87 -24 0
-121 -22 0
-122 -23 0
-123 -24 0
-52 -25 0
-53 -26 0
-54 -27 0
-58 -25 0
-59 -26 0
-60 -27 0
-73 -25 0
-74 -26 0
-75 -27 0
-100 -25 0
-101 -26 0
-102 -27 0
-148 -25 0
-149 -26 0
-150 -27 0
-52 -28 0
-53 -29 0
-54 -30 0
-82 -28 0
-83 -29 0
-84 -30 0
-94 -28 0
-95 -29 0
-96 -30 0
-121 -28 0
-122 -29 0
-123 -30 0
-124 -28 0
-125 -29 0
-126 -30 0
-130 -28 0
-131 -29 0
-132 -30 0
-142 -28 0
-143 -29 0
-144 -30 0
-61 -31 0
-62 -32 0
-63 -33 0
-64 -31 0
-65 -32 0
-66 -33 0
-79 -31 0
-80 -32 0
-81 -33 0
-145 -31 0
-146 -32 0
-147 -33 0
-148 -31 0
-149 -32 0
-150 -33 0
-55 -34 0
-56 -35 0
-57 -36 0
-76 -34 0
-77 -35 0
-78 -36 0
-118 -34 0
-119 -35 0
-120 -36 0
-64 -37 0
-65 -38 0
-66 -39 0
-73 -37 0
-74 -38 0
-75 -39 0
-106 -37 0
-107 -38 0
-108 -39 0
-145 -37 0
-146 -38 0
-147 -39 0
-52 -40 0
-53 -41 0
-54 -42 0
-88 -40 0
-89 -41 0
-90 -42 0
-97 -40 0
-98 -41 0
-99 -42 0
-115 -40 0
-116 -41 0
-117 -42 0
-133 -40 0
-134 -41 0
-135 -42 0
-103 -43 0
-104 -44 0
-105 -45 0
-121 -43 0
-122 -44 0
-123 -45 0
-127 -43 0
-128 -44 0
-129 -45 0
-133 -43 0
-134 -44 0
-135 -45 0
-55 -46 0
-56 -47 0
-57 -48 0
-61 -46 0
-62 -47 0
-63 -48 0
-106 -46 0
-107 -47 0
-108 -48 0
-139 -46 0
-140 -47 0
-141 -48 0
-61 -49 0
-62 -50 0
-63 -51 0
-76 -49 0
-77 -50 0
-78 -51 0
-112 -49 0
-113 -50 0
-114 -51 0
-115 -49 0
-116 -50 0
-117 -51 0
-142 -49 0
-143 -50 0
-144 -51 0
-148 -49 0
-149 -50 0
-150 -51 0
-112 -52 0
-113 -53 0
-114 -54 0
-130 -52 0
-131 -53 0
-132 -54 0
-106 -55 0
-107 -56 0
-108 -57 0
-112 -55 0
-113 -56 0
-114 -57 0
-121 -58 0
-122 -59 0
-123 -60 0
-136 -58 0
-137 -59 0
-138 -60 0
-112 -61 0
-113 -62 0
-114 -63 0
-130 -64 0
-131 -65 0
-132 -66 0
-142 -64 0
-143 -65 0
-144 -66 0
-145 -64 0
-146 -65 0
-147 -66 0
-115 -67 0
-116 -68 0
-117 -69 0
-130 -67 0
-131 -68 0
-132 -69 0
-142 -67 0
-143 -68 0
-144 -69 0
-130 -70 0
-131 -71 0
-132 -72 0
-142 -70 0
-143 -71 0
-144 -72 0
-127 -73 0
-128 -74 0
-129 -75 0
-148 -73 0
-149 -74 0
-150 -75 0
-148 -76 0
-149 -77 0
-150 -78 0
-115 -79 0
-116 -80 0
-117 -81 0
-139 -79 0
-140 -80 0
-141 -81 0
-103 -82 0
-104 -83 0
-105 -84 0
-112 -82 0
-113 -83 0
-114 -84 0
-118 -85 0
-119 -86 0
-120 -87 0
-121 -85 0
-122 -86 0
-123 -87 0
-142 -85 0
-143 -86 0
-144 -87 0
-145 -88 0
-146 -89 0
-147 -90 0
-106 -91 0
-107 -92 0
-108 -93 0
-127 -91 0
-128 -92 0
-129 -93 0
-133 -94 0
-134 -95 0
-135 -96 0
-109 -97 0
-110 -98 0
-111 -99 0
-115 -97 0
-116 -98 0
-117 -99 0
-145 -97 0
-146 -98 0
-147 -99 0
-148 -97 0
-149 -98 0
-150 -99 0
-127 -100 0
-128 -101 0
-129 -102 0
-133 -100 0
-134 -101 0
-135 -102 0
-136 -100 0
-137 -101 0
-138 -102 0
-148 -100 0
-149 -101 0
-150 -102 0
